data/solutions/recovery/degenerate/intermediate/binding/degenerate_intermediate_instance38/31.sol
Elapsed time: 0.04
Upper bound: 316542.0
Planning weighted value: 14079448365.0
C[0]=316542.0
C[1]=309183.0
C[2]=304974.0
C[3]=296940.0
C[4]=294869.0
C[5]=291248.0
C[6]=289398.0
C[7]=286540.0
C[8]=283428.0
C[9]=280276.0
C[10]=277429.0
C[11]=277251.0
C[12]=276340.0
C[13]=0.0
C[14]=0.0
C[15]=0.0
y[0]=1
y[1]=5
y[2]=2
y[3]=3
y[4]=9
y[5]=12
y[6]=11
y[7]=1
y[8]=9
y[9]=7
y[10]=6
y[11]=12
y[12]=3
y[13]=9
y[14]=1
y[15]=10
y[16]=9
y[17]=8
y[18]=8
y[19]=0
y[20]=7
y[21]=7
y[22]=6
y[23]=6
y[24]=7
y[25]=5
y[26]=0
y[27]=4
y[28]=8
y[29]=1
y[30]=12
y[31]=5
y[32]=10
y[33]=8
y[34]=8
y[35]=1
y[36]=3
y[37]=0
y[38]=11
y[39]=10
y[40]=10
y[41]=2
y[42]=3
y[43]=6
y[44]=9
y[45]=5
y[46]=3
y[47]=5
y[48]=0
y[49]=0
y[50]=2
y[51]=11
y[52]=2
y[53]=8
y[54]=12
y[55]=4
y[56]=3
y[57]=11
y[58]=4
y[59]=6
y[60]=3
y[61]=0
y[62]=7
y[63]=4
y[64]=1
y[65]=2
