data/solutions/recovery/degenerate/intermediate/binding/degenerate_intermediate_instance38/31.log

Log started (V12.6.3.0) Sun Apr 22 12:34:50 2018

New value for default parallel thread count: 1

Problem '/tmp/tmpAOhe1R.pyomo.lp' read.
Read time = 0.01 sec. (0.71 ticks)

Problem name         : /tmp/tmpAOhe1R.pyomo.lp
Objective sense      : Minimize
Variables            :    1074  [Nneg: 1,  Binary: 1056,  General Integer: 17]
Objective nonzeros   :       1
Linear constraints   :     168  [Less: 82,  Equal: 86]
  Nonzeros           :   50853
  RHS nonzeros       :      67

Variables            : Min LB: 0.000000         Max UB: 1.000000       
Objective nonzeros   : Min   : 1.000000         Max   : 1.000000       
Linear constraints   :
  Nonzeros           : Min   : 1.000000         Max   : 117484.0       
  RHS nonzeros       : Min   : 1.000000         Max   : 1.000000       
Tried aggregator 2 times.
MIP Presolve eliminated 126 rows and 852 columns.
Aggregator did 13 substitutions.
Reduced MIP has 29 rows, 209 columns, and 429 nonzeros.
Reduced MIP has 208 binaries, 1 generals, 0 SOSs, and 0 indicators.
Presolve time = 0.00 sec. (4.05 ticks)
Found incumbent of value 1257231.000000 after 0.00 sec. (5.35 ticks)
Probing time = 0.00 sec. (0.28 ticks)
Cover probing fixed 0 vars, tightened 4 bounds.
Tried aggregator 1 time.
Reduced MIP has 29 rows, 209 columns, and 429 nonzeros.
Reduced MIP has 208 binaries, 1 generals, 0 SOSs, and 0 indicators.
Presolve time = 0.00 sec. (0.37 ticks)
Probing time = 0.00 sec. (0.24 ticks)
Clique table members: 16.
MIP emphasis: balance optimality and feasibility.
MIP search method: dynamic search.
Parallel mode: none, using 1 thread.
Root relaxation solution time = 0.00 sec. (0.35 ticks)

        Nodes                                         Cuts/
   Node  Left     Objective  IInf  Best Integer    Best Bound    ItCnt     Gap

*     0+    0                      1257231.0000   294869.0000            76.55%
      0     0   294869.0000    21  1257231.0000   294869.0000       56   76.55%
*     0+    0                       343855.0000   294869.0000            14.25%
      0     0   294869.0000    20   343855.0000      Cuts: 14       97   14.25%
*     0+    0                       325520.0000   294869.0000             9.42%
      0     0   305710.9543    16   325520.0000      Cuts: 18      116    6.09%
*     0+    0                       322018.0000   305710.9543             5.06%
      0     0   316542.0000     6   322018.0000      Cuts: 11      134    1.70%
*     0+    0                       316542.0000   316542.0000             0.00%
      0     0        cutoff         316542.0000   316542.0000      134    0.00%
Elapsed time = 0.01 sec. (11.36 ticks, tree = 0.01 MB, solutions = 4)

Clique cuts applied:  3
Cover cuts applied:  1
Implied bound cuts applied:  1
Mixed integer rounding cuts applied:  5
Zero-half cuts applied:  3

Root node processing (before b&c):
  Real time             =    0.01 sec. (11.41 ticks)
Sequential b&c:
  Real time             =    0.00 sec. (0.00 ticks)
                          ------------
Total (root+branch&cut) =    0.01 sec. (11.41 ticks)

Solution pool: 4 solutions saved.

MIP - Integer optimal solution:  Objective =  3.1654200000e+05
Solution time =    0.01 sec.  Iterations = 134  Nodes = 0
Deterministic time = 11.42 ticks  (930.34 ticks/sec)


Incumbent solution written to file '/tmp/tmpE7lOWr.cplex.sol'.
